0 118 
1 118 
2 118 
3 118 
4 117 
5 123 
6 121 
7 117 
8 114 
9 113 
10 110 
11 109 
12 105 
13 108 
14 110 
15 108 
16 104 
17 100 
18 100 
19 99 
20 99 
21 98 
22 97 
23 95 
24 98 
25 98 
26 93 
27 92 
28 89 
29 88 
30 82 
31 87 
32 83 
33 71 
34 69 
35 63 
36 70 
37 67 
38 68 
39 64 
40 60 
41 62 
42 59 
43 57 
44 54 
45 53 
46 50 
47 48 
48 46 
49 47 
50 51 
51 48 
52 46 
53 44 
54 44 
55 41 
56 40 
57 41 
58 45 
59 43 
60 41 
61 40 
62 34 
63 32 
64 32 
65 31 
66 29 
67 28 
68 25 
69 22 
70 21 
71 19 
72 16 
73 15 
74 12 
75 10 
76 8 
77 7 
78 9 
79 7 
80 8 
81 6 
82 5 
83 4 
84 6 
85 7 
86 4 
87 3 
88 3 
89 5 
90 3 
91 4 
92 3 
93 3 
94 1 
95 1 
96 0 
97 0 

